InboundTrucks  = 10;
OutboundTrucks = 10;
InboundDoors   = 4;
OutboundDoors  = 4;
ReleaseTime    = [7,18,17,4,11,29,19,15,20,18];
UnloadTime     = [25,27,21,17,33,24,24,27,24,22];
LoadTime       = [5,15,7,20,19,7,14,15,6,12];
TransferTime   = [| 13,9,11,0,10,10,7,14,6,15 | 10,11,13,0,0,6,0,6,0,0 | 5,8,15,6,14,11,0,0,0,0 | 6,5,6,11,7,14,0,0,0,7 | 15,8,0,7,0,11,9,8,13,15 | 0,0,9,0,8,10,14,5,9,0 | 0,7,7,7,11,15,12,0,9,9 | 0,7,0,7,8,0,0,0,10,13 | 9,15,7,11,8,14,5,8,14,0 | 15,13,15,14,6,9,0,9,0,11 |];
